(set-option :produce-models true)
(set-logic QF_LRA)
(set-info :notes | Strip-packing problem.|)
(declare-fun x0 () Real)
(declare-fun y0 () Real)
(declare-fun x1 () Real)
(declare-fun y1 () Real)
(declare-fun x2 () Real)
(declare-fun y2 () Real)
(declare-fun x3 () Real)
(declare-fun y3 () Real)
(declare-fun x4 () Real)
(declare-fun y4 () Real)
(declare-fun x5 () Real)
(declare-fun y5 () Real)
(declare-fun x6 () Real)
(declare-fun y6 () Real)
(declare-fun x7 () Real)
(declare-fun y7 () Real)
(declare-fun x8 () Real)
(declare-fun y8 () Real)
(declare-fun z () Real)
(declare-fun c () Real)
(assert (and (= c z) (and (>= x0 0) 
(and (>= y0 0) 
(and (>= x1 0) 
(and (>= y1 0) 
(and (>= x2 0) 
(and (>= y2 0) 
(and (>= x3 0) 
(and (>= y3 0) 
(and (>= x4 0) 
(and (>= y4 0) 
(and (>= x5 0) 
(and (>= y5 0) 
(and (>= x6 0) 
(and (>= y6 0) 
(and (>= x7 0) 
(and (>= y7 0) 
(and (>= x8 0) 
(and (>= y8 0) 
(and (>= z 0) 
(and (>= c 0) 
(and (<= (+ x0 0.8870428298) z) 
(and (<= 0.8691478331 y0) 
(and (<= y0 1.0) 
(and (<= x0 (- 4.5808185838 0.8870428298)) 
(and (>= x0 0) 
(and (<= (+ x1 0.4027391098) z) 
(and (<= 0.8219545765 y1) 
(and (<= y1 1.0) 
(and (<= x1 (- 4.5808185838 0.4027391098)) 
(and (>= x1 0) 
(and (<= (+ x2 0.8688977539) z) 
(and (<= 0.8124137953 y2) 
(and (<= y2 1.0) 
(and (<= x2 (- 4.5808185838 0.8688977539)) 
(and (>= x2 0) 
(and (<= (+ x3 0.5824320301) z) 
(and (<= 0.7866708551 y3) 
(and (<= y3 1.0) 
(and (<= x3 (- 4.5808185838 0.5824320301)) 
(and (>= x3 0) 
(and (<= (+ x4 0.9722035795) z) 
(and (<= 0.7601129035 y4) 
(and (<= y4 1.0) 
(and (<= x4 (- 4.5808185838 0.9722035795)) 
(and (>= x4 0) 
(and (<= (+ x5 0.8675032807) z) 
(and (<= 0.5359014439 y5) 
(and (<= y5 1.0) 
(and (<= x5 (- 4.5808185838 0.8675032807)) 
(and (>= x5 0) 
(and (<= (+ x6 0.6083227905) z) 
(and (<= 0.1577360633 y6) 
(and (<= y6 1.0) 
(and (<= x6 (- 4.5808185838 0.6083227905)) 
(and (>= x6 0) 
(and (<= (+ x7 0.9050148322) z) 
(and (<= 0.0152599968 y7) 
(and (<= y7 1.0) 
(and (<= x7 (- 4.5808185838 0.9050148322)) 
(and (>= x7 0) 
(and (<= (+ x8 0.685444849) z) 
(and (<= 0.0109895704 y8) 
(and (<= y8 1.0) 
(and (<= x8 (- 4.5808185838 0.685444849)) 
(and (>= x8 0) 
(and (<= c 4.5808185838) 
(and (or (<= (+ x0 0.8870428298) x1) (or (<= (+ x1 0.4027391098) x0) (or (>= (- y0 0.8691478331) y1) (or (>= (- y1 0.8219545765) y0))))) 
(and (or (<= (+ x0 0.8870428298) x2) (or (<= (+ x2 0.8688977539) x0) (or (>= (- y0 0.8691478331) y2) (or (>= (- y2 0.8124137953) y0))))) 
(and (or (<= (+ x0 0.8870428298) x3) (or (<= (+ x3 0.5824320301) x0) (or (>= (- y0 0.8691478331) y3) (or (>= (- y3 0.7866708551) y0))))) 
(and (or (<= (+ x0 0.8870428298) x4) (or (<= (+ x4 0.9722035795) x0) (or (>= (- y0 0.8691478331) y4) (or (>= (- y4 0.7601129035) y0))))) 
(and (or (<= (+ x0 0.8870428298) x5) (or (<= (+ x5 0.8675032807) x0) (or (>= (- y0 0.8691478331) y5) (or (>= (- y5 0.5359014439) y0))))) 
(and (or (<= (+ x0 0.8870428298) x6) (or (<= (+ x6 0.6083227905) x0) (or (>= (- y0 0.8691478331) y6) (or (>= (- y6 0.1577360633) y0))))) 
(and (or (<= (+ x0 0.8870428298) x7) (or (<= (+ x7 0.9050148322) x0) (or (>= (- y0 0.8691478331) y7) (or (>= (- y7 0.0152599968) y0))))) 
(and (or (<= (+ x0 0.8870428298) x8) (or (<= (+ x8 0.685444849) x0) (or (>= (- y0 0.8691478331) y8) (or (>= (- y8 0.0109895704) y0))))) 
(and (or (<= (+ x1 0.4027391098) x2) (or (<= (+ x2 0.8688977539) x1) (or (>= (- y1 0.8219545765) y2) (or (>= (- y2 0.8124137953) y1))))) 
(and (or (<= (+ x1 0.4027391098) x3) (or (<= (+ x3 0.5824320301) x1) (or (>= (- y1 0.8219545765) y3) (or (>= (- y3 0.7866708551) y1))))) 
(and (or (<= (+ x1 0.4027391098) x4) (or (<= (+ x4 0.9722035795) x1) (or (>= (- y1 0.8219545765) y4) (or (>= (- y4 0.7601129035) y1))))) 
(and (or (<= (+ x1 0.4027391098) x5) (or (<= (+ x5 0.8675032807) x1) (or (>= (- y1 0.8219545765) y5) (or (>= (- y5 0.5359014439) y1))))) 
(and (or (<= (+ x1 0.4027391098) x6) (or (<= (+ x6 0.6083227905) x1) (or (>= (- y1 0.8219545765) y6) (or (>= (- y6 0.1577360633) y1))))) 
(and (or (<= (+ x1 0.4027391098) x7) (or (<= (+ x7 0.9050148322) x1) (or (>= (- y1 0.8219545765) y7) (or (>= (- y7 0.0152599968) y1))))) 
(and (or (<= (+ x1 0.4027391098) x8) (or (<= (+ x8 0.685444849) x1) (or (>= (- y1 0.8219545765) y8) (or (>= (- y8 0.0109895704) y1))))) 
(and (or (<= (+ x2 0.8688977539) x3) (or (<= (+ x3 0.5824320301) x2) (or (>= (- y2 0.8124137953) y3) (or (>= (- y3 0.7866708551) y2))))) 
(and (or (<= (+ x2 0.8688977539) x4) (or (<= (+ x4 0.9722035795) x2) (or (>= (- y2 0.8124137953) y4) (or (>= (- y4 0.7601129035) y2))))) 
(and (or (<= (+ x2 0.8688977539) x5) (or (<= (+ x5 0.8675032807) x2) (or (>= (- y2 0.8124137953) y5) (or (>= (- y5 0.5359014439) y2))))) 
(and (or (<= (+ x2 0.8688977539) x6) (or (<= (+ x6 0.6083227905) x2) (or (>= (- y2 0.8124137953) y6) (or (>= (- y6 0.1577360633) y2))))) 
(and (or (<= (+ x2 0.8688977539) x7) (or (<= (+ x7 0.9050148322) x2) (or (>= (- y2 0.8124137953) y7) (or (>= (- y7 0.0152599968) y2))))) 
(and (or (<= (+ x2 0.8688977539) x8) (or (<= (+ x8 0.685444849) x2) (or (>= (- y2 0.8124137953) y8) (or (>= (- y8 0.0109895704) y2))))) 
(and (or (<= (+ x3 0.5824320301) x4) (or (<= (+ x4 0.9722035795) x3) (or (>= (- y3 0.7866708551) y4) (or (>= (- y4 0.7601129035) y3))))) 
(and (or (<= (+ x3 0.5824320301) x5) (or (<= (+ x5 0.8675032807) x3) (or (>= (- y3 0.7866708551) y5) (or (>= (- y5 0.5359014439) y3))))) 
(and (or (<= (+ x3 0.5824320301) x6) (or (<= (+ x6 0.6083227905) x3) (or (>= (- y3 0.7866708551) y6) (or (>= (- y6 0.1577360633) y3))))) 
(and (or (<= (+ x3 0.5824320301) x7) (or (<= (+ x7 0.9050148322) x3) (or (>= (- y3 0.7866708551) y7) (or (>= (- y7 0.0152599968) y3))))) 
(and (or (<= (+ x3 0.5824320301) x8) (or (<= (+ x8 0.685444849) x3) (or (>= (- y3 0.7866708551) y8) (or (>= (- y8 0.0109895704) y3))))) 
(and (or (<= (+ x4 0.9722035795) x5) (or (<= (+ x5 0.8675032807) x4) (or (>= (- y4 0.7601129035) y5) (or (>= (- y5 0.5359014439) y4))))) 
(and (or (<= (+ x4 0.9722035795) x6) (or (<= (+ x6 0.6083227905) x4) (or (>= (- y4 0.7601129035) y6) (or (>= (- y6 0.1577360633) y4))))) 
(and (or (<= (+ x4 0.9722035795) x7) (or (<= (+ x7 0.9050148322) x4) (or (>= (- y4 0.7601129035) y7) (or (>= (- y7 0.0152599968) y4))))) 
(and (or (<= (+ x4 0.9722035795) x8) (or (<= (+ x8 0.685444849) x4) (or (>= (- y4 0.7601129035) y8) (or (>= (- y8 0.0109895704) y4))))) 
(and (or (<= (+ x5 0.8675032807) x6) (or (<= (+ x6 0.6083227905) x5) (or (>= (- y5 0.5359014439) y6) (or (>= (- y6 0.1577360633) y5))))) 
(and (or (<= (+ x5 0.8675032807) x7) (or (<= (+ x7 0.9050148322) x5) (or (>= (- y5 0.5359014439) y7) (or (>= (- y7 0.0152599968) y5))))) 
(and (or (<= (+ x5 0.8675032807) x8) (or (<= (+ x8 0.685444849) x5) (or (>= (- y5 0.5359014439) y8) (or (>= (- y8 0.0109895704) y5))))) 
(and (or (<= (+ x6 0.6083227905) x7) (or (<= (+ x7 0.9050148322) x6) (or (>= (- y6 0.1577360633) y7) (or (>= (- y7 0.0152599968) y6))))) 
(and (or (<= (+ x6 0.6083227905) x8) (or (<= (+ x8 0.685444849) x6) (or (>= (- y6 0.1577360633) y8) (or (>= (- y8 0.0109895704) y6))))) 
(and (or (<= (+ x7 0.9050148322) x8) (or (<= (+ x8 0.685444849) x7) (or (>= (- y7 0.0152599968) y8) (or (>= (- y8 0.0109895704) y7))))) ))))))))))))))))))))))))))))))))))))))))))))))))))))))))))))))))))))))))))))))))))))))))))))))))))))))))
(minimize c)
(check-sat)
(get-objectives)
(exit)
